c description: Random 5-CNF over 15 variables and 30 clauses
c generator: CNFgen (0.9.0)
c copyright: (C) 2012-2020 Massimo Lauria <massimo.lauria@uniroma1.it>
c url: https://massimolauria.net/cnfgen
c
p cnf 15 30
-2 4 6 -10 11 0
1 2 -10 13 15 0
-1 -3 -5 -7 15 0
3 4 9 10 15 0
-1 2 7 -11 13 0
-3 -4 5 9 13 0
-4 6 -7 13 14 0
1 -3 -4 -5 -11 0
-9 -11 12 -13 -15 0
2 -3 4 13 -14 0
-1 3 7 -12 13 0
2 4 10 -11 -15 0
-3 4 -8 -14 15 0
1 -2 -5 -6 -12 0
-3 4 -7 12 -13 0
5 -9 10 13 -14 0
-3 5 11 13 -15 0
2 4 -7 11 13 0
5 6 12 -14 -15 0
2 -8 -10 -13 14 0
-1 -2 3 -10 -15 0
-1 3 -6 -9 12 0
1 -2 -3 4 6 0
-5 -11 -12 -14 15 0
2 -6 -7 8 13 0
-6 7 10 13 -15 0
-2 6 -9 -11 15 0
-6 -7 8 9 -10 0
2 4 -6 -14 15 0
6 7 -8 -10 -11 0